DIMACS2
20 284 140 221 226 280 80 180 174 311 14 11 267 32 257 141 205 296 92 133 253
p edge 320 320
e 0 48 1.0
e 1 256 2.0
e 2 126 1.0
e 2 0 1.0
e 3 253 2.0
e 4 188 6.0
e 5 310 6.0
e 6 245 1.0
e 7 97 1.0
e 8 189 1.0
e 9 91 1.0
e 10 207 1.0
e 11 248 28.0
e 12 178 1.0
e 13 278 1.0
e 14 154 32.0
e 15 88 2.0
e 16 192 1.0
e 17 143 1.0
e 18 95 4.0
e 19 213 1.0
e 20 137 1.0
e 21 57 1.0
e 22 52 1.0
e 23 294 2.0
e 24 51 1.0
e 25 151 4.0
e 26 152 1.0
e 27 240 5.0
e 28 133 20.0
e 29 266 2.0
e 30 154 1.0
e 31 144 1.0
e 32 198 32.0
e 33 227 1.0
e 34 264 10.0
e 35 267 8.0
e 36 104 1.0
e 37 279 1.0
e 38 78 1.0
e 39 43 1.0
e 40 21 1.0
e 41 17 1.0
e 42 51 3.0
e 43 137 1.0
e 44 43 1.0
e 45 128 1.0
e 46 292 1.0
e 47 78 1.0
e 48 223 2.0
e 49 149 5.0
e 50 234 1.0
e 51 284 29.0
e 52 177 1.0
e 53 212 1.0
e 54 200 3.0
e 55 310 4.0
e 56 72 2.0
e 57 88 2.0
e 58 156 1.0
e 59 222 1.0
e 60 80 40.0
e 61 273 1.0
e 62 123 1.0
e 63 19 1.0
e 64 317 1.0
e 65 63 1.0
e 66 114 1.0
e 67 210 1.0
e 68 295 12.0
e 69 145 4.0
e 70 63 1.0
e 71 81 3.0
e 72 136 2.0
e 73 64 2.0
e 74 60 6.0
e 75 208 1.0
e 76 185 1.0
e 77 135 1.0
e 78 221 28.0
e 79 121 2.0
e 80 18 14.0
e 81 187 9.0
e 82 19 1.0
e 83 277 4.0
e 84 291 1.0
e 85 43 1.0
e 86 311 42.0
e 87 102 5.0
e 88 262 2.0
e 89 180 16.0
e 90 200 1.0
e 91 50 5.0
e 92 34 29.0
e 93 58 2.0
e 94 199 1.0
e 95 132 1.0
e 96 80 49.0
e 97 16 1.0
e 98 278 1.0
e 99 291 1.0
e 100 221 7.0
e 101 316 3.0
e 102 133 29.0
e 103 313 4.0
e 104 45 1.0
e 105 180 21.0
e 106 311 48.0
e 107 87 1.0
e 108 315 4.0
e 109 146 2.0
e 110 82 1.0
e 111 104 1.0
e 112 206 1.0
e 113 310 3.0
e 114 184 1.0
e 115 240 1.0
e 116 256 10.0
e 117 25 1.0
e 118 261 3.0
e 119 10 1.0
e 120 17 1.0
e 121 72 2.0
e 122 74 1.0
e 123 193 1.0
e 124 249 1.0
e 125 277 4.0
e 126 182 1.0
e 127 192 1.0
e 128 99 1.0
e 129 136 3.0
e 130 215 8.0
e 131 48 1.0
e 132 106 8.0
e 133 66 15.0
e 134 148 1.0
e 135 85 1.0
e 136 180 33.0
e 137 64 1.0
e 138 298 1.0
e 139 73 1.0
e 140 27 26.0
e 141 103 42.0
e 142 262 1.0
e 143 76 1.0
e 144 89 1.0
e 145 181 1.0
e 146 62 1.0
e 147 309 1.0
e 148 105 4.0
e 149 141 32.0
e 150 65 1.0
e 151 80 6.0
e 152 7 1.0
e 153 312 1.0
e 154 253 2.0
e 155 164 1.0
e 156 173 1.0
e 157 35 1.0
e 158 264 7.0
e 159 116 3.0
e 160 223 1.0
e 161 31 1.0
e 162 120 1.0
e 163 217 2.0
e 164 117 1.0
e 165 274 1.0
e 166 241 1.0
e 167 157 1.0
e 168 150 1.0
e 169 5 1.0
e 170 53 1.0
e 171 198 11.0
e 172 254 4.0
e 173 61 1.0
e 174 276 4.0
e 175 305 1.0
e 176 269 1.0
e 177 29 1.0
e 178 110 1.0
e 179 302 1.0
e 180 66 46.0
e 181 310 4.0
e 182 157 1.0
e 183 171 1.0
e 184 242 1.0
e 185 195 1.0
e 186 60 11.0
e 187 240 1.0
e 188 198 8.0
e 189 91 1.0
e 190 260 2.0
e 191 135 1.0
e 192 12 1.0
e 193 118 1.0
e 194 166 1.0
e 195 191 1.0
e 196 105 1.0
e 197 234 1.0
e 198 269 10.0
e 199 245 1.0
e 200 100 9.0
e 201 138 1.0
e 202 96 7.0
e 203 286 4.0
e 204 192 1.0
e 205 145 46.0
e 206 127 1.0
e 207 230 2.0
e 208 109 1.0
e 209 113 1.0
e 210 75 1.0
e 211 216 1.0
e 212 110 1.0
e 213 210 1.0
e 214 98 1.0
e 215 80 15.0
e 216 160 1.0
e 217 220 1.0
e 218 245 1.0
e 219 295 1.0
e 220 18 11.0
e 221 259 22.0
e 222 226 8.0
e 223 249 2.0
e 224 172 1.0
e 225 178 1.0
e 226 116 11.0
e 227 219 1.0
e 228 106 12.0
e 229 75 1.0
e 230 316 4.0
e 231 288 1.0
e 232 67 1.0
e 233 154 1.0
e 235 68 11.0
e 236 51 1.0
e 237 110 1.0
e 238 77 1.0
e 239 121 2.0
e 240 147 2.0
e 241 213 1.0
e 242 65 1.0
e 243 313 1.0
e 244 196 2.0
e 245 295 1.0
e 246 248 6.0
e 247 278 5.0
e 248 183 4.0
e 249 125 1.0
e 250 169 1.0
e 251 287 1.0
e 252 15 1.0
e 253 89 31.0
e 254 202 2.0
e 255 95 1.0
e 256 209 2.0
e 257 35 15.0
e 258 238 1.0
e 259 49 3.0
e 260 231 2.0
e 261 130 1.0
e 262 108 3.0
e 263 164 2.0
e 264 294 1.0
e 265 96 4.0
e 266 129 1.0
e 267 50 14.0
e 268 123 1.0
e 269 131 2.0
e 270 15 1.0
e 271 68 5.0
e 272 90 4.0
e 273 59 5.0
e 274 94 1.0
e 275 191 1.0
e 276 233 5.0
e 277 78 8.0
e 278 159 2.0
e 279 121 2.0
e 280 289 3.0
e 281 152 1.0
e 282 174 15.0
e 283 82 1.0
e 284 117 8.0
e 285 133 43.0
e 286 282 1.0
e 287 172 1.0
e 288 28 4.0
e 289 91 1.0
e 290 239 1.0
e 291 279 1.0
e 292 134 1.0
e 293 265 1.0
e 294 211 3.0
e 295 148 1.0
e 296 81 21.0
e 297 303 1.0
e 298 6 1.0
e 299 248 6.0
e 300 34 13.0
e 301 120 1.0
e 302 5 1.0
e 303 177 1.0
e 304 58 1.0
e 305 109 1.0
e 306 118 1.0
e 307 309 1.0
e 308 210 1.0
e 309 165 1.0
e 310 133 17.0
e 311 68 1.0
e 312 150 1.0
e 313 255 1.0
e 314 247 1.0
e 315 78 8.0
e 316 74 3.0
e 317 313 2.0
e 318 112 1.0
e 319 83 5.0
